2025-09-15 21:47:47,511 | INFO | Logging to Result_14\scheduler_run.log
2025-09-15 21:47:47,512 | INFO | ===== SCHEDULER RUN 20250915_214747 =====
2025-09-15 21:47:47,513 | INFO | Args.case=C:\Users\sapper\AppData\Local\Temp\tmp0teh03nd.json
2025-09-15 21:47:47,522 | INFO | Loaded case with 31 days, 9 shifts, 4 providers
2025-09-15 21:47:47,523 | INFO | Run config: out=Result_14 k=1 seed=1 time=1500 L=1
2025-09-15 21:47:47,530 | INFO | Wrote: Result_14\constants_effective.log
2025-09-15 21:47:47,532 | INFO | Wrote capacity snapshot: Result_14\eligibility_capacity.json
2025-09-15 21:47:47,533 | INFO | Instance: |days|=31 |shifts|=9 |providers|=4 |types|=2
2025-09-15 21:47:47,534 | INFO | Weekend names: ['Saturday', 'Sunday']
2025-09-15 21:47:47,538 | INFO | Weekend indices: [3, 4, 10, 11, 17, 18, 24, 25]
2025-09-15 21:47:47,540 | INFO | Shift[0] keys: ['id', 'date', 'type', 'start', 'end', 'allowed_provider_types']
2025-09-15 21:47:47,540 | INFO | Provider[0] keys: ['id', 'name', 'type', 'max_consecutive_days', 'limits', 'forbidden_days_soft', 'forbidden_days_hard', 'preferred_days_hard', 'preferred_days_soft']
2025-09-15 21:47:47,542 | INFO | Provider types: ['MD_N', 'MD_S2', 'MSS', 'Staff']
2025-09-15 21:47:47,544 | INFO | max_consecutive_days per provider (0 means no cap): [12, 1000, 2, 1000]
2025-09-15 21:47:47,702 | INFO | 0
2025-09-15 21:47:47,702 | INFO | 1
2025-09-15 21:47:47,702 | INFO | 2
2025-09-15 21:47:47,702 | INFO | 3
2025-09-15 21:47:47,713 | INFO | Phase-1 solve: time=120.0s workers=8
2025-09-15 21:47:47,724 | INFO | [phase1] 
2025-09-15 21:47:47,724 | INFO | [phase1] Starting CP-SAT solver v9.14.6206
2025-09-15 21:47:47,724 | INFO | [phase1] Parameters: max_time_in_seconds: 120 log_search_progress: true num_search_workers: 8 log_to_stdout: false
2025-09-15 21:47:47,736 | INFO | [phase1] 
2025-09-15 21:47:47,745 | INFO | [phase1] Initial optimization model '': (model_fingerprint: 0x8b1b2205504cc715)
#Variables: 827 (#ints: 1 in objective) (413 primary variables)
  - 293 Booleans in [0,1]
  - 4 in [-31,31]
  - 4 in [0,9]
  - 256 in [0,31]
  - 124 in [0,961]
  - 16 in [0,1000]
  - 128 in [0,29791]
  - 1 in [0,1000000000000000000]
  - 1 constants in {0} 
#kAtMostOne: 12 (#literals: 24)
#kIntProd: 248
#kLinMax: 8 (#expressions: 132)
#kLinear1: 515 (#enforced: 372 #multi: 120)
#kLinear2: 544 (#enforced: 244 #multi: 120)
#kLinear3: 132
#kLinearN: 23 (#terms: 287)
2025-09-15 21:47:47,745 | INFO | [phase1] 
2025-09-15 21:47:47,745 | INFO | [phase1] Starting presolve at 0.02s
2025-09-15 21:47:47,758 | INFO | [phase1] INFEASIBLE: 'proven during initial copy of constraint #544:
linear {
  vars: [170, 303]
  coeffs: [-1, 1]
  domain: [-1000, -1000]
}
With current variable domains:
var:170 domain:[0,31]
var:303 domain:[-31,31]
'
2025-09-15 21:47:47,758 | INFO | [phase1] Problem proven infeasible during initial copy.
2025-09-15 21:47:47,758 | INFO | [phase1] CpSolverResponse summary:
status: INFEASIBLE
objective: NA
best_bound: NA
integers: 0
booleans: 0
conflicts: 0
branches: 0
propagations: 0
integer_propagations: 0
restarts: 0
lp_iterations: 0
walltime: 0.0367776
usertime: 0.0367779
deterministic_time: 0
gap_integral: 0
2025-09-15 21:47:47,758 | INFO | Phase-1 status=INFEASIBLE objective(U)=None
2025-09-15 21:47:47,772 | INFO | No objective
2025-09-15 21:47:47,809 | INFO | [wk_pen_count_0(0..4), wk_pen_count_1(0..4), wk_pen_count_2(0..4), wk_pen_count_3(0..4)]
2025-09-15 21:47:47,809 | INFO | Model built: |S|=9 |P|=4 |D|=31
2025-09-15 21:47:47,809 | INFO | Time budget total=1500.00s split: phase1=600.00s phase2=900.00s
2025-09-15 21:47:47,809 | INFO | Phase-2 solve: time=900.0s workers=16 rgap=1e-05 seed=1
2025-09-15 21:47:47,809 | INFO | Diversity threshold L=1, K=1
2025-09-15 21:47:47,824 | INFO | [phase2] 
2025-09-15 21:47:47,824 | INFO | [phase2] Starting CP-SAT solver v9.14.6206
2025-09-15 21:47:47,826 | INFO | [phase2] Parameters: random_seed: 1 max_time_in_seconds: 900 log_search_progress: true num_search_workers: 16 relative_gap_limit: 1e-05 log_to_stdout: false
2025-09-15 21:47:47,831 | INFO | [phase2] 
2025-09-15 21:47:47,840 | INFO | [phase2] Initial optimization model '': (model_fingerprint: 0x10b1c7995fc5a6a)
#Variables: 1'081 (#ints: 1 in objective) (496 primary variables)
  - 469 Booleans in [0,1]
  - 4 in [-31,31]
  - 16 in [-1,1]
  - 4 in [0,3]
  - 4 in [0,4]
  - 4 in [0,6]
  - 20 in [0,9]
  - 264 in [0,31]
  - 4 in [0,40]
  - 12 in [0,162]
  - 124 in [0,961]
  - 16 in [0,1000]
  - 128 in [0,29791]
  - 4 in [0,100000]
  - 4 in [0,1000000000000000]
  - 2 in [0,1000000000000000000]
  - 2 constants in {0} 
#kAtMostOne: 12 (#literals: 24)
#kIntProd: 260
#kLinMax: 24 (#expressions: 164)
#kLinear1: 652 (#enforced: 372 #multi: 120)
#kLinear2: 660 (#enforced: 244 #multi: 120)
#kLinear3: 196
#kLinearN: 48 (#terms: 496)
2025-09-15 21:47:47,842 | INFO | [phase2] 
2025-09-15 21:47:47,843 | INFO | [phase2] Starting presolve at 0.02s
2025-09-15 21:47:47,845 | INFO | [phase2] INFEASIBLE: 'proven during initial copy of constraint #544:
linear {
  vars: [170, 303]
  coeffs: [-1, 1]
  domain: [-1000, -1000]
}
With current variable domains:
var:170 domain:[0,31]
var:303 domain:[-31,31]
'
2025-09-15 21:47:47,846 | INFO | [phase2] Problem proven infeasible during initial copy.
2025-09-15 21:47:47,847 | INFO | [phase2] CpSolverResponse summary:
status: INFEASIBLE
objective: NA
best_bound: NA
integers: 0
booleans: 0
conflicts: 0
branches: 0
propagations: 0
integer_propagations: 0
restarts: 0
lp_iterations: 0
walltime: 0.0237028
usertime: 0.0237031
deterministic_time: 0
gap_integral: 0
2025-09-15 21:47:47,852 | INFO | Phase-2 status=INFEASIBLE
2025-09-15 21:47:47,859 | INFO | Phase-2 best objective=0.0 best bound=0.0
2025-09-15 21:47:47,860 | INFO | Pool collected=0
2025-09-15 21:47:47,862 | INFO | Selected tables=0 (requested K=1)
2025-09-15 21:47:47,935 | INFO | Wrote: Result_14\schedules.xlsx
2025-09-15 21:47:47,937 | INFO | Wrote: Result_14\hospital_schedule.xlsx
2025-09-15 21:47:47,939 | INFO | Wrote: Result_14\calendar.xlsx
2025-09-15 21:47:47,940 | INFO | Wrote: Result_14\eligibility_capacity.json
2025-09-15 21:47:47,944 | INFO | Wrote grid: Result_14\schedules.xlsx
2025-09-15 21:47:47,945 | INFO | Wrote hospital: Result_14\hospital_schedule.xlsx
2025-09-15 21:47:47,954 | INFO | Wrote calendar: Result_14\calendar.xlsx
2025-09-15 21:47:47,955 | INFO | Wrote run meta: Result_14\scheduler_log_20250915_214747.json
2025-09-15 21:47:47,956 | INFO | ===== SCHEDULER RUN COMPLETE 20250915_214747 =====
2025-09-15 21:56:15,914 | INFO | Logging to Result_14\scheduler_run.log
2025-09-15 21:56:15,915 | INFO | ===== SCHEDULER RUN 20250915_215615 =====
2025-09-15 21:56:15,923 | INFO | Args.case=C:\Users\sapper\AppData\Local\Temp\tmp4h_shnb0.json
2025-09-15 21:56:15,924 | INFO | Loaded case with 31 days, 9 shifts, 4 providers
2025-09-15 21:56:15,931 | INFO | Run config: out=Result_14 k=1 seed=1 time=1500 L=1
2025-09-15 21:56:15,942 | INFO | Wrote: Result_14\constants_effective.log
2025-09-15 21:56:15,950 | INFO | Wrote capacity snapshot: Result_14\eligibility_capacity.json
2025-09-15 21:56:15,950 | INFO | Instance: |days|=31 |shifts|=9 |providers|=4 |types|=2
2025-09-15 21:56:15,950 | INFO | Weekend names: ['Saturday', 'Sunday']
2025-09-15 21:56:15,957 | INFO | Weekend indices: [3, 4, 10, 11, 17, 18, 24, 25]
2025-09-15 21:56:15,957 | INFO | Shift[0] keys: ['id', 'date', 'type', 'start', 'end', 'allowed_provider_types']
2025-09-15 21:56:15,957 | INFO | Provider[0] keys: ['id', 'name', 'type', 'max_consecutive_days', 'limits', 'forbidden_days_soft', 'forbidden_days_hard', 'preferred_days_hard', 'preferred_days_soft']
2025-09-15 21:56:15,957 | INFO | Provider types: ['MD_N', 'MD_S2', 'MSS', 'Staff']
2025-09-15 21:56:15,973 | INFO | max_consecutive_days per provider (0 means no cap): [12, 1000, 2, 1000]
2025-09-15 21:56:16,107 | INFO | 0
2025-09-15 21:56:16,107 | INFO | 1
2025-09-15 21:56:16,112 | INFO | 2
2025-09-15 21:56:16,117 | INFO | 3
2025-09-15 21:56:16,117 | ERROR | Solve_test_case exception: name 'slack_consec' is not defined
2025-09-15 21:56:16,128 | ERROR | Traceback (most recent call last):
  File "C:\Werk\Webapp\Webapp7aramoy\scheduling-webapp\public\local-solver-package\testcase_gui.py", line 2018, in Solve_test_case
    ctx = build_model(consts, case)
          ^^^^^^^^^^^^^^^^^^^^^^^^^
  File "C:\Werk\Webapp\Webapp7aramoy\scheduling-webapp\public\local-solver-package\testcase_gui.py", line 1275, in build_model
    + c_slack_consec * sum(slack_consec)
                           ^^^^^^^^^^^^
NameError: name 'slack_consec' is not defined. Did you mean: 'c_slack_consec'?

2025-09-15 22:04:07,186 | INFO | Logging to Result_14\scheduler_run.log
2025-09-15 22:04:07,186 | INFO | ===== SCHEDULER RUN 20250915_220407 =====
2025-09-15 22:04:07,193 | INFO | Args.case=C:\Users\sapper\AppData\Local\Temp\tmpe4hwpdcw.json
2025-09-15 22:04:07,197 | INFO | Loaded case with 31 days, 9 shifts, 4 providers
2025-09-15 22:04:07,206 | INFO | Run config: out=Result_14 k=1 seed=1 time=1500 L=1
2025-09-15 22:04:07,212 | INFO | Wrote: Result_14\constants_effective.log
2025-09-15 22:04:07,215 | INFO | Wrote capacity snapshot: Result_14\eligibility_capacity.json
2025-09-15 22:04:07,216 | INFO | Instance: |days|=31 |shifts|=9 |providers|=4 |types|=2
2025-09-15 22:04:07,220 | INFO | Weekend names: ['Saturday', 'Sunday']
2025-09-15 22:04:07,224 | INFO | Weekend indices: [3, 4, 10, 11, 17, 18, 24, 25]
2025-09-15 22:04:07,224 | INFO | Shift[0] keys: ['id', 'date', 'type', 'start', 'end', 'allowed_provider_types']
2025-09-15 22:04:07,224 | INFO | Provider[0] keys: ['id', 'name', 'type', 'max_consecutive_days', 'limits', 'forbidden_days_soft', 'forbidden_days_hard', 'preferred_days_hard', 'preferred_days_soft']
2025-09-15 22:04:07,224 | INFO | Provider types: ['MD_N', 'MD_S2', 'MSS', 'Staff']
2025-09-15 22:04:07,231 | INFO | max_consecutive_days per provider (0 means no cap): [12, 1000, 2, 1000]
2025-09-15 22:04:07,380 | INFO | 0
2025-09-15 22:04:07,380 | INFO | 1
2025-09-15 22:04:07,380 | INFO | 2
2025-09-15 22:04:07,391 | INFO | 3
2025-09-15 22:04:07,391 | INFO | Phase-1 solve: time=120.0s workers=8
2025-09-15 22:04:07,401 | INFO | [phase1] 
2025-09-15 22:04:07,404 | INFO | [phase1] Starting CP-SAT solver v9.14.6206
2025-09-15 22:04:07,406 | INFO | [phase1] Parameters: max_time_in_seconds: 120 log_search_progress: true num_search_workers: 8 log_to_stdout: false
2025-09-15 22:04:07,412 | INFO | [phase1] 
2025-09-15 22:04:07,412 | INFO | [phase1] Initial optimization model '': (model_fingerprint: 0xf8a3a249ef7b7e60)
#Variables: 827 (#ints: 1 in objective) (413 primary variables)
  - 293 Booleans in [0,1]
  - 4 in [-31,31]
  - 4 in [0,9]
  - 256 in [0,31]
  - 124 in [0,961]
  - 16 in [0,1000]
  - 128 in [0,29791]
  - 1 in [0,1000000000000000000]
  - 1 constants in {0} 
#kAtMostOne: 12 (#literals: 24)
#kIntProd: 248
#kLinMax: 8 (#expressions: 132)
#kLinear1: 515 (#enforced: 372 #multi: 120)
#kLinear2: 540 (#enforced: 244 #multi: 120)
#kLinear3: 132
#kLinearN: 23 (#terms: 287)
2025-09-15 22:04:07,412 | INFO | [phase1] 
2025-09-15 22:04:07,412 | INFO | [phase1] Starting presolve at 0.01s
2025-09-15 22:04:07,412 | INFO | [phase1] INFEASIBLE: 'proven during initial copy of constraint #543:
linear {
  vars: [170, 303]
  coeffs: [-1, 1]
  domain: [-1000, -1000]
}
With current variable domains:
var:170 domain:[0,31]
var:303 domain:[-31,31]
'
2025-09-15 22:04:07,423 | INFO | [phase1] Problem proven infeasible during initial copy.
2025-09-15 22:04:07,423 | INFO | [phase1] CpSolverResponse summary:
status: INFEASIBLE
objective: NA
best_bound: NA
integers: 0
booleans: 0
conflicts: 0
branches: 0
propagations: 0
integer_propagations: 0
restarts: 0
lp_iterations: 0
walltime: 0.0250957
usertime: 0.025096
deterministic_time: 0
gap_integral: 0
2025-09-15 22:04:07,423 | INFO | Phase-1 status=INFEASIBLE objective(U)=None
2025-09-15 22:04:07,434 | INFO | No objective
2025-09-15 22:04:07,466 | INFO | [wk_pen_count_0(0..4), wk_pen_count_1(0..4), wk_pen_count_2(0..4), wk_pen_count_3(0..4)]
2025-09-15 22:04:07,466 | INFO | Model built: |S|=9 |P|=4 |D|=31
2025-09-15 22:04:07,466 | INFO | Time budget total=1500.00s split: phase1=600.00s phase2=900.00s
2025-09-15 22:04:07,476 | INFO | Phase-2 solve: time=900.0s workers=16 rgap=1e-05 seed=1
2025-09-15 22:04:07,476 | INFO | Diversity threshold L=1, K=1
2025-09-15 22:04:07,476 | INFO | [phase2] 
2025-09-15 22:04:07,476 | INFO | [phase2] Starting CP-SAT solver v9.14.6206
2025-09-15 22:04:07,476 | INFO | [phase2] Parameters: random_seed: 1 max_time_in_seconds: 900 log_search_progress: true num_search_workers: 16 relative_gap_limit: 1e-05 log_to_stdout: false
2025-09-15 22:04:07,489 | INFO | [phase2] 
2025-09-15 22:04:07,489 | INFO | [phase2] Initial optimization model '': (model_fingerprint: 0x5ead48fbd287abdc)
#Variables: 1'081 (#ints: 1 in objective) (496 primary variables)
  - 469 Booleans in [0,1]
  - 4 in [-31,31]
  - 16 in [-1,1]
  - 4 in [0,3]
  - 4 in [0,4]
  - 4 in [0,6]
  - 20 in [0,9]
  - 264 in [0,31]
  - 4 in [0,40]
  - 12 in [0,162]
  - 124 in [0,961]
  - 16 in [0,1000]
  - 128 in [0,29791]
  - 4 in [0,100000]
  - 4 in [0,1000000000000000]
  - 2 in [0,1000000000000000000]
  - 2 constants in {0} 
#kAtMostOne: 12 (#literals: 24)
#kIntProd: 260
#kLinMax: 24 (#expressions: 164)
#kLinear1: 652 (#enforced: 372 #multi: 120)
#kLinear2: 656 (#enforced: 244 #multi: 120)
#kLinear3: 196
#kLinearN: 48 (#terms: 496)
2025-09-15 22:04:07,497 | INFO | [phase2] 
2025-09-15 22:04:07,497 | INFO | [phase2] Starting presolve at 0.02s
2025-09-15 22:04:07,502 | INFO | [phase2] INFEASIBLE: 'proven during initial copy of constraint #543:
linear {
  vars: [170, 303]
  coeffs: [-1, 1]
  domain: [-1000, -1000]
}
With current variable domains:
var:170 domain:[0,31]
var:303 domain:[-31,31]
'
2025-09-15 22:04:07,508 | INFO | [phase2] Problem proven infeasible during initial copy.
2025-09-15 22:04:07,508 | INFO | [phase2] CpSolverResponse summary:
status: INFEASIBLE
objective: NA
best_bound: NA
integers: 0
booleans: 0
conflicts: 0
branches: 0
propagations: 0
integer_propagations: 0
restarts: 0
lp_iterations: 0
walltime: 0.0285942
usertime: 0.0285948
deterministic_time: 0
gap_integral: 0
2025-09-15 22:04:07,513 | INFO | Phase-2 status=INFEASIBLE
2025-09-15 22:04:07,519 | INFO | Phase-2 best objective=0.0 best bound=0.0
2025-09-15 22:04:07,519 | INFO | Pool collected=0
2025-09-15 22:04:07,519 | INFO | Selected tables=0 (requested K=1)
2025-09-15 22:04:07,577 | INFO | Wrote: Result_14\schedules.xlsx
2025-09-15 22:04:07,577 | INFO | Wrote: Result_14\hospital_schedule.xlsx
2025-09-15 22:04:07,583 | INFO | Wrote: Result_14\calendar.xlsx
2025-09-15 22:04:07,583 | INFO | Wrote: Result_14\eligibility_capacity.json
2025-09-15 22:04:07,583 | INFO | Wrote grid: Result_14\schedules.xlsx
2025-09-15 22:04:07,583 | INFO | Wrote hospital: Result_14\hospital_schedule.xlsx
2025-09-15 22:04:07,583 | INFO | Wrote calendar: Result_14\calendar.xlsx
2025-09-15 22:04:07,583 | INFO | Wrote run meta: Result_14\scheduler_log_20250915_220407.json
2025-09-15 22:04:07,594 | INFO | ===== SCHEDULER RUN COMPLETE 20250915_220407 =====
2025-09-15 22:10:03,359 | INFO | Logging to Result_14\scheduler_run.log
2025-09-15 22:10:03,360 | INFO | ===== SCHEDULER RUN 20250915_221003 =====
2025-09-15 22:10:03,363 | INFO | Args.case=C:\Users\sapper\AppData\Local\Temp\tmpur_d69mw.json
2025-09-15 22:10:03,367 | INFO | Loaded case with 31 days, 9 shifts, 4 providers
2025-09-15 22:10:03,370 | INFO | Run config: out=Result_14 k=1 seed=1 time=1500 L=1
2025-09-15 22:10:03,378 | INFO | Wrote: Result_14\constants_effective.log
2025-09-15 22:10:03,381 | INFO | Wrote capacity snapshot: Result_14\eligibility_capacity.json
2025-09-15 22:10:03,385 | INFO | Instance: |days|=31 |shifts|=9 |providers|=4 |types|=2
2025-09-15 22:10:03,387 | INFO | Weekend names: ['Saturday', 'Sunday']
2025-09-15 22:10:03,387 | INFO | Weekend indices: [3, 4, 10, 11, 17, 18, 24, 25]
2025-09-15 22:10:03,390 | INFO | Shift[0] keys: ['id', 'date', 'type', 'start', 'end', 'allowed_provider_types']
2025-09-15 22:10:03,395 | INFO | Provider[0] keys: ['id', 'name', 'type', 'max_consecutive_days', 'limits', 'forbidden_days_soft', 'forbidden_days_hard', 'preferred_days_hard', 'preferred_days_soft']
2025-09-15 22:10:03,422 | INFO | Provider types: ['MD_N', 'MD_S2', 'MSS', 'Staff']
2025-09-15 22:10:03,433 | INFO | max_consecutive_days per provider (0 means no cap): [12, 1000, 2, 1000]
2025-09-15 22:10:03,604 | INFO | 0
2025-09-15 22:10:03,604 | INFO | 1
2025-09-15 22:10:03,604 | INFO | 2
2025-09-15 22:10:03,619 | INFO | 3
2025-09-15 22:10:03,619 | INFO | Phase-1 solve: time=120.0s workers=8
2025-09-15 22:10:03,631 | INFO | [phase1] 
2025-09-15 22:10:03,631 | INFO | [phase1] Starting CP-SAT solver v9.14.6206
2025-09-15 22:10:03,636 | INFO | [phase1] Parameters: max_time_in_seconds: 120 log_search_progress: true num_search_workers: 8 log_to_stdout: false
2025-09-15 22:10:03,636 | INFO | [phase1] 
2025-09-15 22:10:03,636 | INFO | [phase1] Initial optimization model '': (model_fingerprint: 0xf8a3a249ef7b7e60)
#Variables: 827 (#ints: 1 in objective) (413 primary variables)
  - 293 Booleans in [0,1]
  - 4 in [-31,31]
  - 4 in [0,9]
  - 256 in [0,31]
  - 124 in [0,961]
  - 16 in [0,1000]
  - 128 in [0,29791]
  - 1 in [0,1000000000000000000]
  - 1 constants in {0} 
#kAtMostOne: 12 (#literals: 24)
#kIntProd: 248
#kLinMax: 8 (#expressions: 132)
#kLinear1: 515 (#enforced: 372 #multi: 120)
#kLinear2: 540 (#enforced: 244 #multi: 120)
#kLinear3: 132
#kLinearN: 23 (#terms: 287)
2025-09-15 22:10:03,636 | INFO | [phase1] 
2025-09-15 22:10:03,646 | INFO | [phase1] Starting presolve at 0.02s
2025-09-15 22:10:03,657 | INFO | [phase1] INFEASIBLE: 'proven during initial copy of constraint #543:
linear {
  vars: [170, 303]
  coeffs: [-1, 1]
  domain: [-1000, -1000]
}
With current variable domains:
var:170 domain:[0,31]
var:303 domain:[-31,31]
'
2025-09-15 22:10:03,658 | INFO | [phase1] Problem proven infeasible during initial copy.
2025-09-15 22:10:03,659 | INFO | [phase1] CpSolverResponse summary:
status: INFEASIBLE
objective: NA
best_bound: NA
integers: 0
booleans: 0
conflicts: 0
branches: 0
propagations: 0
integer_propagations: 0
restarts: 0
lp_iterations: 0
walltime: 0.0283318
usertime: 0.0283324
deterministic_time: 0
gap_integral: 0
2025-09-15 22:10:03,673 | INFO | Phase-1 status=INFEASIBLE objective(U)=None
2025-09-15 22:10:03,684 | INFO | No objective
2025-09-15 22:10:03,727 | INFO | [wk_pen_count_0(0..4), wk_pen_count_1(0..4), wk_pen_count_2(0..4), wk_pen_count_3(0..4)]
2025-09-15 22:10:03,728 | INFO | Model built: |S|=9 |P|=4 |D|=31
2025-09-15 22:10:03,730 | INFO | Time budget total=1500.00s split: phase1=600.00s phase2=900.00s
2025-09-15 22:10:03,732 | INFO | Phase-2 solve: time=900.0s workers=16 rgap=1e-05 seed=1
2025-09-15 22:10:03,732 | INFO | Diversity threshold L=1, K=1
2025-09-15 22:10:03,732 | INFO | [phase2] 
2025-09-15 22:10:03,742 | INFO | [phase2] Starting CP-SAT solver v9.14.6206
2025-09-15 22:10:03,748 | INFO | [phase2] Parameters: random_seed: 1 max_time_in_seconds: 900 log_search_progress: true num_search_workers: 16 relative_gap_limit: 1e-05 log_to_stdout: false
2025-09-15 22:10:03,753 | INFO | [phase2] 
2025-09-15 22:10:03,753 | INFO | [phase2] Initial optimization model '': (model_fingerprint: 0xf3a3abc7e19c0305)
#Variables: 1'081 (#ints: 1 in objective) (496 primary variables)
  - 469 Booleans in [0,1]
  - 4 in [-31,31]
  - 16 in [-1,1]
  - 4 in [0,3]
  - 4 in [0,4]
  - 4 in [0,6]
  - 20 in [0,9]
  - 264 in [0,31]
  - 4 in [0,40]
  - 12 in [0,162]
  - 124 in [0,961]
  - 16 in [0,1000]
  - 128 in [0,29791]
  - 4 in [0,100000]
  - 4 in [0,1000000000000000]
  - 2 in [0,1000000000000000000]
  - 2 constants in {0} 
#kAtMostOne: 12 (#literals: 24)
#kIntProd: 260
#kLinMax: 24 (#expressions: 164)
#kLinear1: 652 (#enforced: 372 #multi: 120)
#kLinear2: 656 (#enforced: 244 #multi: 120)
#kLinear3: 196
#kLinearN: 48 (#terms: 496)
2025-09-15 22:10:03,753 | INFO | [phase2] 
2025-09-15 22:10:03,764 | INFO | [phase2] Starting presolve at 0.02s
2025-09-15 22:10:03,774 | INFO | [phase2] INFEASIBLE: 'proven during initial copy of constraint #543:
linear {
  vars: [170, 303]
  coeffs: [-1, 1]
  domain: [-1000, -1000]
}
With current variable domains:
var:170 domain:[0,31]
var:303 domain:[-31,31]
'
2025-09-15 22:10:03,774 | INFO | [phase2] Problem proven infeasible during initial copy.
2025-09-15 22:10:03,787 | INFO | [phase2] CpSolverResponse summary:
status: INFEASIBLE
objective: NA
best_bound: NA
integers: 0
booleans: 0
conflicts: 0
branches: 0
propagations: 0
integer_propagations: 0
restarts: 0
lp_iterations: 0
walltime: 0.0411163
usertime: 0.0411167
deterministic_time: 0
gap_integral: 0
2025-09-15 22:10:03,790 | INFO | Phase-2 status=INFEASIBLE
2025-09-15 22:10:03,790 | INFO | Phase-2 best objective=0.0 best bound=0.0
2025-09-15 22:10:03,790 | INFO | Pool collected=0
2025-09-15 22:10:03,790 | INFO | Selected tables=0 (requested K=1)
2025-09-15 22:10:03,865 | INFO | Wrote: Result_14\schedules.xlsx
2025-09-15 22:10:03,865 | INFO | Wrote: Result_14\hospital_schedule.xlsx
2025-09-15 22:10:03,868 | INFO | Wrote: Result_14\calendar.xlsx
2025-09-15 22:10:03,869 | INFO | Wrote: Result_14\eligibility_capacity.json
2025-09-15 22:10:03,870 | INFO | Wrote grid: Result_14\schedules.xlsx
2025-09-15 22:10:03,871 | INFO | Wrote hospital: Result_14\hospital_schedule.xlsx
2025-09-15 22:10:03,872 | INFO | Wrote calendar: Result_14\calendar.xlsx
2025-09-15 22:10:03,873 | INFO | Wrote run meta: Result_14\scheduler_log_20250915_221003.json
2025-09-15 22:10:03,874 | INFO | ===== SCHEDULER RUN COMPLETE 20250915_221003 =====
